(declare-const in0 Int)
(declare-const in2 Int)
(declare-const in1 Int)
(declare-const in4 Int)
(declare-const in3 Int)
(declare-const in6 Int)
(declare-const in5 Int)
(declare-const in8 Int)
(declare-const in7 Int)
(declare-const t Int)
(declare-const in11 Int)
(declare-const in10 Int)
(declare-const in9 Int)
(declare-const in13 Int)
(declare-const in12 Int)
(declare-const in14 Int)

(assert (and (and (and (and (and (and (and (and (and (and (and (and (and (and (and (and (and (and (and (and (and (and (and (and (and (and (and (and (and (and (and (and (and (and (and (and (and (and (and (and (and (and (and (and (and (and (and (and (and (and (and (and (and (and (and (and (and (and (and (and (and (and (and (and (and (and (and (and (and (and (and (and (and (and (and (and (and (and (and (and (and (and (and (and (and (and (and (and (and (and (and (and (and (and (and (and (and (and (and (and (and (and (and (and (and (and (and (and (and (and (and (and (and (and (and (and (and (and (and (and (and (and (and (and (and (and (and (and (and (and (and (and (and (and (and (and (and (and (and (and (and (and (and (and (and (and (and (and (and (and (and  ( >=  in0 -10)  ( <=  in0 10))  ( >=  in1 -10))  ( <=  in1 10))  ( >=  in2 -10))  ( <=  in2 10))  ( >=  in3 -10))  ( <=  in3 10))  ( >=  in4 -10))  ( <=  in4 10))  ( >=  in5 -10))  ( <=  in5 10))  ( >=  in6 -10))  ( <=  in6 10))  ( >=  in7 -10))  ( <=  in7 10))  ( >=  in8 -10))  ( <=  in8 10))  ( >=  in9 -10))  ( <=  in9 10))  ( >=  in10 -10))  ( <=  in10 10))  ( >=  in11 -10))  ( <=  in11 10))  ( >=  in12 -10))  ( <=  in12 10))  ( >=  in13 -10))  ( <=  in13 10))  ( >=  in14 -10))  ( <=  in14 10))  ( >=  t -100))  ( <=  t 100)) (not ( = in0 t))) (not ( = ( +  in1 in0) t))) (not ( = ( +  in2 ( +  in1 in0)) t))) (not ( = ( +  in3 ( +  in2 ( +  in1 in0))) t))) (not ( = ( +  in4 ( +  in3 ( +  in2 ( +  in1 in0)))) t))) (not ( = ( +  in5 ( +  in4 ( +  in3 ( +  in2 ( +  in1 in0))))) t))) (not ( = ( +  in6 ( +  in5 ( +  in4 ( +  in3 ( +  in2 ( +  in1 in0)))))) t))) (not ( = ( +  in7 ( +  in6 ( +  in5 ( +  in4 ( +  in3 ( +  in2 ( +  in1 in0))))))) t))) (not ( = ( +  in8 ( +  in7 ( +  in6 ( +  in5 ( +  in4 ( +  in3 ( +  in2 ( +  in1 in0)))))))) t))) (not ( = ( +  in9 ( +  in8 ( +  in7 ( +  in6 ( +  in5 ( +  in4 ( +  in3 ( +  in2 ( +  in1 in0))))))))) t))) (not ( = ( +  in10 ( +  in9 ( +  in8 ( +  in7 ( +  in6 ( +  in5 ( +  in4 ( +  in3 ( +  in2 ( +  in1 in0)))))))))) t))) (not ( = ( +  in11 ( +  in10 ( +  in9 ( +  in8 ( +  in7 ( +  in6 ( +  in5 ( +  in4 ( +  in3 ( +  in2 ( +  in1 in0))))))))))) t))) (not ( = ( +  in12 ( +  in11 ( +  in10 ( +  in9 ( +  in8 ( +  in7 ( +  in6 ( +  in5 ( +  in4 ( +  in3 ( +  in2 ( +  in1 in0)))))))))))) t))) (not ( = ( +  in13 ( +  in12 ( +  in11 ( +  in10 ( +  in9 ( +  in8 ( +  in7 ( +  in6 ( +  in5 ( +  in4 ( +  in3 ( +  in2 ( +  in1 in0))))))))))))) t))) (not ( = ( +  in14 ( +  in13 ( +  in12 ( +  in11 ( +  in10 ( +  in9 ( +  in8 ( +  in7 ( +  in6 ( +  in5 ( +  in4 ( +  in3 ( +  in2 ( +  in1 in0)))))))))))))) t))) (not ( = in1 t))) (not ( = ( +  in2 in1) t))) (not ( = ( +  in3 ( +  in2 in1)) t))) (not ( = ( +  in4 ( +  in3 ( +  in2 in1))) t))) (not ( = ( +  in5 ( +  in4 ( +  in3 ( +  in2 in1)))) t))) (not ( = ( +  in6 ( +  in5 ( +  in4 ( +  in3 ( +  in2 in1))))) t))) (not ( = ( +  in7 ( +  in6 ( +  in5 ( +  in4 ( +  in3 ( +  in2 in1)))))) t))) (not ( = ( +  in8 ( +  in7 ( +  in6 ( +  in5 ( +  in4 ( +  in3 ( +  in2 in1))))))) t))) (not ( = ( +  in9 ( +  in8 ( +  in7 ( +  in6 ( +  in5 ( +  in4 ( +  in3 ( +  in2 in1)))))))) t))) (not ( = ( +  in10 ( +  in9 ( +  in8 ( +  in7 ( +  in6 ( +  in5 ( +  in4 ( +  in3 ( +  in2 in1))))))))) t))) (not ( = ( +  in11 ( +  in10 ( +  in9 ( +  in8 ( +  in7 ( +  in6 ( +  in5 ( +  in4 ( +  in3 ( +  in2 in1)))))))))) t))) (not ( = ( +  in12 ( +  in11 ( +  in10 ( +  in9 ( +  in8 ( +  in7 ( +  in6 ( +  in5 ( +  in4 ( +  in3 ( +  in2 in1))))))))))) t))) (not ( = ( +  in13 ( +  in12 ( +  in11 ( +  in10 ( +  in9 ( +  in8 ( +  in7 ( +  in6 ( +  in5 ( +  in4 ( +  in3 ( +  in2 in1)))))))))))) t))) (not ( = ( +  in14 ( +  in13 ( +  in12 ( +  in11 ( +  in10 ( +  in9 ( +  in8 ( +  in7 ( +  in6 ( +  in5 ( +  in4 ( +  in3 ( +  in2 in1))))))))))))) t))) (not ( = in2 t))) (not ( = ( +  in3 in2) t))) (not ( = ( +  in4 ( +  in3 in2)) t))) (not ( = ( +  in5 ( +  in4 ( +  in3 in2))) t))) (not ( = ( +  in6 ( +  in5 ( +  in4 ( +  in3 in2)))) t))) (not ( = ( +  in7 ( +  in6 ( +  in5 ( +  in4 ( +  in3 in2))))) t))) (not ( = ( +  in8 ( +  in7 ( +  in6 ( +  in5 ( +  in4 ( +  in3 in2)))))) t))) (not ( = ( +  in9 ( +  in8 ( +  in7 ( +  in6 ( +  in5 ( +  in4 ( +  in3 in2))))))) t))) (not ( = ( +  in10 ( +  in9 ( +  in8 ( +  in7 ( +  in6 ( +  in5 ( +  in4 ( +  in3 in2)))))))) t))) (not ( = ( +  in11 ( +  in10 ( +  in9 ( +  in8 ( +  in7 ( +  in6 ( +  in5 ( +  in4 ( +  in3 in2))))))))) t))) (not ( = ( +  in12 ( +  in11 ( +  in10 ( +  in9 ( +  in8 ( +  in7 ( +  in6 ( +  in5 ( +  in4 ( +  in3 in2)))))))))) t))) (not ( = ( +  in13 ( +  in12 ( +  in11 ( +  in10 ( +  in9 ( +  in8 ( +  in7 ( +  in6 ( +  in5 ( +  in4 ( +  in3 in2))))))))))) t))) (not ( = ( +  in14 ( +  in13 ( +  in12 ( +  in11 ( +  in10 ( +  in9 ( +  in8 ( +  in7 ( +  in6 ( +  in5 ( +  in4 ( +  in3 in2)))))))))))) t))) (not ( = in3 t))) (not ( = ( +  in4 in3) t))) (not ( = ( +  in5 ( +  in4 in3)) t))) (not ( = ( +  in6 ( +  in5 ( +  in4 in3))) t))) (not ( = ( +  in7 ( +  in6 ( +  in5 ( +  in4 in3)))) t))) (not ( = ( +  in8 ( +  in7 ( +  in6 ( +  in5 ( +  in4 in3))))) t))) (not ( = ( +  in9 ( +  in8 ( +  in7 ( +  in6 ( +  in5 ( +  in4 in3)))))) t))) (not ( = ( +  in10 ( +  in9 ( +  in8 ( +  in7 ( +  in6 ( +  in5 ( +  in4 in3))))))) t))) (not ( = ( +  in11 ( +  in10 ( +  in9 ( +  in8 ( +  in7 ( +  in6 ( +  in5 ( +  in4 in3)))))))) t))) (not ( = ( +  in12 ( +  in11 ( +  in10 ( +  in9 ( +  in8 ( +  in7 ( +  in6 ( +  in5 ( +  in4 in3))))))))) t))) (not ( = ( +  in13 ( +  in12 ( +  in11 ( +  in10 ( +  in9 ( +  in8 ( +  in7 ( +  in6 ( +  in5 ( +  in4 in3)))))))))) t))) (not ( = ( +  in14 ( +  in13 ( +  in12 ( +  in11 ( +  in10 ( +  in9 ( +  in8 ( +  in7 ( +  in6 ( +  in5 ( +  in4 in3))))))))))) t))) (not ( = in4 t))) (not ( = ( +  in5 in4) t))) (not ( = ( +  in6 ( +  in5 in4)) t))) (not ( = ( +  in7 ( +  in6 ( +  in5 in4))) t))) (not ( = ( +  in8 ( +  in7 ( +  in6 ( +  in5 in4)))) t))) (not ( = ( +  in9 ( +  in8 ( +  in7 ( +  in6 ( +  in5 in4))))) t))) (not ( = ( +  in10 ( +  in9 ( +  in8 ( +  in7 ( +  in6 ( +  in5 in4)))))) t))) (not ( = ( +  in11 ( +  in10 ( +  in9 ( +  in8 ( +  in7 ( +  in6 ( +  in5 in4))))))) t))) (not ( = ( +  in12 ( +  in11 ( +  in10 ( +  in9 ( +  in8 ( +  in7 ( +  in6 ( +  in5 in4)))))))) t))) (not ( = ( +  in13 ( +  in12 ( +  in11 ( +  in10 ( +  in9 ( +  in8 ( +  in7 ( +  in6 ( +  in5 in4))))))))) t))) (not ( = ( +  in14 ( +  in13 ( +  in12 ( +  in11 ( +  in10 ( +  in9 ( +  in8 ( +  in7 ( +  in6 ( +  in5 in4)))))))))) t))) (not ( = in5 t))) (not ( = ( +  in6 in5) t))) (not ( = ( +  in7 ( +  in6 in5)) t))) (not ( = ( +  in8 ( +  in7 ( +  in6 in5))) t))) (not ( = ( +  in9 ( +  in8 ( +  in7 ( +  in6 in5)))) t))) (not ( = ( +  in10 ( +  in9 ( +  in8 ( +  in7 ( +  in6 in5))))) t))) (not ( = ( +  in11 ( +  in10 ( +  in9 ( +  in8 ( +  in7 ( +  in6 in5)))))) t))) (not ( = ( +  in12 ( +  in11 ( +  in10 ( +  in9 ( +  in8 ( +  in7 ( +  in6 in5))))))) t))) (not ( = ( +  in13 ( +  in12 ( +  in11 ( +  in10 ( +  in9 ( +  in8 ( +  in7 ( +  in6 in5)))))))) t))) (not ( = ( +  in14 ( +  in13 ( +  in12 ( +  in11 ( +  in10 ( +  in9 ( +  in8 ( +  in7 ( +  in6 in5))))))))) t))) (not ( = in6 t))) (not ( = ( +  in7 in6) t))) (not ( = ( +  in8 ( +  in7 in6)) t))) (not ( = ( +  in9 ( +  in8 ( +  in7 in6))) t))) (not ( = ( +  in10 ( +  in9 ( +  in8 ( +  in7 in6)))) t))) (not ( = ( +  in11 ( +  in10 ( +  in9 ( +  in8 ( +  in7 in6))))) t))) (not ( = ( +  in12 ( +  in11 ( +  in10 ( +  in9 ( +  in8 ( +  in7 in6)))))) t))) (not ( = ( +  in13 ( +  in12 ( +  in11 ( +  in10 ( +  in9 ( +  in8 ( +  in7 in6))))))) t))) (not ( = ( +  in14 ( +  in13 ( +  in12 ( +  in11 ( +  in10 ( +  in9 ( +  in8 ( +  in7 in6)))))))) t))) (not ( = in7 t))) (not ( = ( +  in8 in7) t))) (not ( = ( +  in9 ( +  in8 in7)) t))) (not ( = ( +  in10 ( +  in9 ( +  in8 in7))) t))) (not ( = ( +  in11 ( +  in10 ( +  in9 ( +  in8 in7)))) t))) (not ( = ( +  in12 ( +  in11 ( +  in10 ( +  in9 ( +  in8 in7))))) t))) (not ( = ( +  in13 ( +  in12 ( +  in11 ( +  in10 ( +  in9 ( +  in8 in7)))))) t))) (not ( = ( +  in14 ( +  in13 ( +  in12 ( +  in11 ( +  in10 ( +  in9 ( +  in8 in7))))))) t))) (not ( = in8 t))) (not ( = ( +  in9 in8) t))) (not ( = ( +  in10 ( +  in9 in8)) t))) (not ( = ( +  in11 ( +  in10 ( +  in9 in8))) t))) (not ( = ( +  in12 ( +  in11 ( +  in10 ( +  in9 in8)))) t))) (not ( = ( +  in13 ( +  in12 ( +  in11 ( +  in10 ( +  in9 in8))))) t))) (not ( = ( +  in14 ( +  in13 ( +  in12 ( +  in11 ( +  in10 ( +  in9 in8)))))) t))) (not ( = in9 t))) (not ( = ( +  in10 in9) t))) (not ( = ( +  in11 ( +  in10 in9)) t))) (not ( = ( +  in12 ( +  in11 ( +  in10 in9))) t))) (not ( = ( +  in13 ( +  in12 ( +  in11 ( +  in10 in9)))) t))) (not ( = ( +  in14 ( +  in13 ( +  in12 ( +  in11 ( +  in10 in9))))) t))) (not ( = in10 t))) (not ( = ( +  in11 in10) t))) (not ( = ( +  in12 ( +  in11 in10)) t))) (not ( = ( +  in13 ( +  in12 ( +  in11 in10))) t))) (not ( = ( +  in14 ( +  in13 ( +  in12 ( +  in11 in10)))) t))) (not ( = in11 t))) (not ( = ( +  in12 in11) t))) (not ( = ( +  in13 ( +  in12 in11)) t))) (not ( = ( +  in14 ( +  in13 ( +  in12 in11))) t))) (not ( = in12 t))) (not ( = ( +  in13 in12) t))) (not ( = ( +  in14 ( +  in13 in12)) t))) (not ( = in13 t))) (not ( = ( +  in14 in13) t))) (not ( = in14 t))))

(check-sat)
(get-model)